16
Zwitterionic glycine plus two nearby waters; translated excerpt; source box 15.813 A
O 3.945000 2.472000 4.511000
H 3.345000 2.469000 3.734000
H 4.805000 2.138000 4.225000
O 7.315000 6.164000 8.804000
H 6.752000 6.903000 8.369000
H 7.769000 5.749000 8.066000
N 5.000000 5.000000 5.000000
H 4.729000 5.459000 4.128000
H 5.103000 3.991000 4.812000
H 4.277000 5.099000 5.704000
C 6.292000 5.507000 5.495000
H 6.878000 5.847000 4.638000
H 6.113000 6.345000 6.164000
C 7.053000 4.332000 6.192000
O 6.587000 3.199000 5.985000
O 8.155000 4.638000 6.756000
